10
0 1 5 5 5 5 5 5 5 5
1 0 1 5 5 5 5 5 5 5
5 1 0 1 5 5 5 5 5 5
5 5 1 0 1 5 5 5 5 5
5 5 5 1 0 1 5 5 5 5
5 5 5 5 1 0 1 5 5 5
5 5 5 5 5 1 0 1 5 5
5 5 5 5 5 5 1 0 1 5
5 5 5 5 5 5 5 1 0 1
5 5 5 5 5 5 5 5 1 0
RRBRRRBBBB